Cr4 O12
1.0
   5.8516190000000003    0.0000000000000000    0.0000000000000000
   0.0000000000000000    4.5697869999999998    0.0000000000000000
   0.0000000000000000    0.0000000000000000    9.5714640000000006
Cr O
4 12
direct
   0.2095639999999999    0.0176010000000000    0.2499999999999999 Cr
   0.7904359999999999    0.5176010000000000    0.7500000000000000 Cr
   0.2904360000000000    0.9421189999999999    0.7500000000000000 Cr
   0.7095639999999999    0.4421189999999999    0.2499999999999999 Cr
   0.0216919999999999    0.7613790000000000    0.7500000000000000 O
   0.9783080000000000    0.2613789999999999    0.2499999999999999 O
   0.1942639999999999    0.8110360000000000    0.3835930000000000 O
   0.8057360000000000    0.3110360000000000    0.6164069999999999 O
   0.1942639999999999    0.8110360000000000    0.1164069999999999 O
   0.8057360000000000    0.3110360000000000    0.8835929999999999 O
   0.3057360000000000    0.1486840000000000    0.6164069999999999 O
   0.6942640000000000    0.6486839999999999    0.3835930000000000 O
   0.3057360000000000    0.1486840000000000    0.8835929999999999 O
   0.6942640000000000    0.6486839999999999    0.1164069999999999 O
   0.4783080000000000    0.1983410000000000    0.2499999999999999 O
   0.5216920000000000    0.6983410000000000    0.7500000000000000 O
