Cr4 O12
1.0
   5.0007840000000003    0.0000000000000000    0.0075270000000000
   0.0000000000000000    5.2589119999999996    0.0000000000000000
   0.0000000000000000    0.0000000000000000    7.1289429999999996
Cr O
4 12
direct
   0.2275080000000000    0.0471220000000000    0.2201650000000000 Cr
   0.7724920000000000    0.5471220000000000    0.7798349999999999 Cr
   0.2438970000000000    0.0521260000000000    0.7204900000000000 Cr
   0.7561030000000000    0.5521260000000000    0.2795100000000000 Cr
   0.0457750000000000    0.6852570000000000    0.7067670000000000 O
   0.9542250000000000    0.1852570000000000    0.2932330000000000 O
   0.0503810000000000    0.6830490000000000    0.3031800000000000 O
   0.9496190000000000    0.1830490000000000    0.6968200000000000 O
   0.1641950000000000    0.9642810000000001    0.0012590000000000 O
   0.8358050000000000    0.4642810000000000    0.9987410000000000 O
   0.3436500000000000    0.0030040000000000    0.5018990000000000 O
   0.6563500000000000    0.5030040000000000    0.4981010000000000 O
   0.4377650000000000    0.2851400000000000    0.7949870000000000 O
   0.5622350000000000    0.7851399999999999    0.2050130000000000 O
   0.4456790000000000    0.2789000000000000    0.2016350000000000 O
   0.5543210000000000    0.7789000000000000    0.7983650000000000 O