Cr4 O12
1.0
   5.8516190000000003    0.0000000000000000    0.0000000000000000
   0.0000000000000000    4.5697869999999998    0.0000000000000000
   0.0000000000000000    0.0000000000000000    9.5714640000000006
Cr O
4 12
direct
   0.2095640000000000    0.0376010000000000    0.2500000000000000 Cr
   0.7904360000000000    0.5376010000000000    0.7500000000000000 Cr
   0.2904360000000000    0.9621189999999999    0.7500000000000000 Cr
   0.7095640000000000    0.4621190000000000    0.2500000000000000 Cr
   0.0216920000000000    0.7813790000000000    0.7500000000000000 O
   0.9783080000000000    0.2813790000000000    0.2500000000000000 O
   0.1942640000000000    0.8310360000000000    0.3835930000000000 O
   0.8057360000000000    0.3310360000000000    0.6164070000000000 O
   0.1942640000000000    0.8310360000000000    0.1164070000000000 O
   0.8057360000000000    0.3310360000000000    0.8835930000000000 O
   0.3057360000000000    0.1686840000000000    0.6164070000000000 O
   0.6942640000000000    0.6686839999999999    0.3835930000000000 O
   0.3057360000000000    0.1686840000000000    0.8835930000000000 O
   0.6942640000000000    0.6686839999999999    0.1164070000000000 O
   0.4783080000000000    0.2183410000000000    0.2500000000000000 O
   0.5216920000000000    0.7183410000000000    0.7500000000000000 O