Ba1 Ti1 O3
1.0
   4.0355829999999999    0.0000000000000000    0.0000000000000000
   0.0000000000000000    4.0355829999999999    0.0000000000000000
   0.0000000000000000    0.0000000000000000    4.0355829999999999
Ba Ti O
1 1 3
direct
   1.0000000000000000    1.0000000000000000    0.0027999999999999 Ba
   0.4999999999999999    0.4999999999999999    0.5027999999999999 Ti
   1.0000000000000000    0.4999999999999999    0.5027999999999999 O
   0.4999999999999999    1.0000000000000000    0.5027999999999999 O
   0.4999999999999999    0.4999999999999999    0.0027999999999999 O
