Ba1 Ti1 O3
1.0
   4.0020059999999997    0.0000000000000000    0.0000000000000000
   0.0000000000000000    4.0020059999999997    0.0000000000000000
   0.0000000000000000    0.0000000000000000    4.2155069999999997
Ba Ti O
1 1 3
direct
   0.0000000000000000    0.0000000000000000    0.0202290000000000 Ba
   0.5000000000000000    0.5000000000000000    0.5389210000000000 Ti
   0.0000000000000000    0.5000000000000000    0.4920230000000000 O
   0.5000000000000000    0.0000000000000000    0.4920230000000000 O
   0.5000000000000000    0.5000000000000000    0.9708030000000000 O
