&CONTROL
  calculation = 'scf'
  prefix = 'febio3_np_orig_scf'
  pseudo_dir = '/global/homes/p/pabigail/pseudos_from_vrindaa/oncv-marton/'
  outdir = 'calculations_k555_u_3/'
  wfcdir = 'calculations_k555_u_3/'
  verbosity = 'high'
/
&SYSTEM
  ibrav = 0
  ecutwfc = 100
  input_dft = 'pbe'
  nat = 10
  ntyp = 4
  nspin = 2
  tot_magnetization = 0
  starting_magnetization(1) = -1
  starting_magnetization(2) = 1
  nosym = .TRUE.
  noinv = .TRUE.
/
&ELECTRONS
  mixing_beta = 0.7
  conv_thr = 1d-08
  adaptive_thr = .TRUE.
  mixing_mode = 'plain'
  mixing_ndim = 8
  diagonalization = 'david'
/
ATOMIC_SPECIES
  Fe1 55.845 Fe_ONCV_PBE-1.0.upf
  Fe2 55.845 Fe_ONCV_PBE-1.0.upf
  O 15.9994 O_ONCV_PBE-1.0.upf
  Bi 208.9804 Bi_ONCV_PBE-1.0.upf
ATOMIC_POSITIONS crystal
  Fe 0.9900000000000000 0.9900000000000000 0.9900000000000000
  Fe2 0.4899999999999999 0.4899999999999999 0.4899999999999999
  Bi 0.7400000000000000 0.7400000000000000 0.7400000000000000
  Bi 0.2399999999999999 0.2399999999999999 0.2399999999999999
  O 0.1580619999999999 0.3219379999999999 0.7400000000000000
  O 0.3219379999999999 0.7400000000000000 0.1580619999999999
  O 0.7400000000000000 0.1580619999999999 0.3219379999999999
  O 0.6580620000000000 0.2399999999999999 0.8219379999999999
  O 0.8219379999999999 0.6580620000000000 0.2399999999999999
  O 0.2399999999999999 0.8219379999999999 0.6580620000000000
K_POINTS automatic
  5 5 5 0 0 0
CELL_PARAMETERS angstrom
  4.7655360000000000 -2.8175870000000001 -0.0640980000000000
  4.7655360000000000 2.8175870000000001 -0.0640980000000000
  3.1616529999999998 0.0000000000000000 4.5450179999999998
HUBBARD ortho-atomic
  U Fe1-3d 3.0
  U Fe2-3d 3.0
