&CONTROL
  calculation = 'scf'
  prefix = 'batio3_pol'
  pseudo_dir = '/global/homes/p/pabigail/qe_pseudos/'
  outdir = 'calculations/'
  verbosity = 'high'
/
&SYSTEM
  ibrav = 0
  ecutwfc = 40
  input_dft = 'pbe'
  nbnd = 24
  nat = 5
  ntyp = 3
  nosym = .TRUE.
  noinv = .TRUE.
/
&ELECTRONS
  mixing_beta = 0.7
  conv_thr = 1d-08
  adaptive_thr = .TRUE.
  mixing_mode = 'plain'
  mixing_ndim = 8
  diagonalization = 'david'
/
ATOMIC_SPECIES
  Ba  137.3270 Ba_ONCV_PBE-1.0.upf
  O  15.9994 O_ONCV_PBE-1.0.upf
  Ti  47.8670 Ti_ONCV_PBE-1.0.upf
ATOMIC_POSITIONS crystal
  Ba 0.000000 0.000000 0.020310
  Ti 0.500000 0.500000 0.538678
  O 0.000000 0.500000 0.491942
  O 0.500000 0.000000 0.491942
  O 0.500000 0.500000 0.971127
K_POINTS automatic
  5 5 5 1 1 1
CELL_PARAMETERS angstrom
  4.001192 0.000000 0.000000
  0.000000 4.001192 0.000000
  0.000000 0.000000 4.215097
